c 1 __UCLIBC_HAS_CTYPE_TABLES__
c 3 __UCLIBC_HAS_FLOATS__
c 2 __UCLIBC_HAS_XLOCALE__
c 4 __UCLIBC_HAS_LOCALE__
c 6 __UCLIBC_HAS_HEXADECIMAL_FLOATS__
c 5 __UCLIBC_HAS_WCHAR__
p cnf 6 1
1 -3 -4 -2 -6 -5 1
